1095
1   1   83   97   0 5 60 82 49 36 46 45 0
1   2   78   98   0 18 52 31 32 90 62 7 0
1   3   82   96   0 85 91 44 38 43 42 37 0
1   4   45   83   0 8 48 47 83 0
2   1   47   92   0 54 4 72 21 12 0
2   2   105  96   0 26 97 100 14 61 6 53 0
2   3   66   96   0 79 81 9 35 34 78 80 0
2   4   30   76   0 76 50 77 68 0
3   1   88   98   0 57 15 41 22 23 67 56 0
3   2   29   88   0 95 94 13 58 0
3   3   37   88   0 87 92 98 93 59 0
3   4   72   90   0 40 55 25 39 75 74 73 2 0
4   1   76   73   0 10 63 64 11 19 88 0
4   2   92   98   0 84 17 86 16 99 96 89 0
4   3   77   95   0 71 65 66 20 30 70 0
4   4   88   94   0 1 51 33 3 29 24 28 27 69 0